%chk=antilla_OPLS3e_1_opt.chk
%nprocshared=12
%mem=48GB
# m062x 6-31g(d) scrf=(iefpcm,solvent=benzene) opt=(maxcycles=50,maxstep=10)

 Structure3

0  1
C          -2.28470        -2.41950        -2.25600
C          -1.41840        -3.50560        -2.21770
C          -0.18410        -3.37410        -1.54940
C           0.12520        -2.17640        -0.86170
H          -3.23870        -2.52480        -2.75190
O           1.29400        -2.15130        -0.14830
C           1.20440        -5.12200        -0.34190
C           0.80800        -4.51770        -1.55970
C           1.33430        -4.97830        -2.78320
C           2.16950        -6.08830        -2.78250
O           0.68850        -4.58190         0.80610
H           2.57710        -6.44050        -3.71890
C          -0.74410        -1.02470        -0.94020
C          -1.97760        -1.19110        -1.64250
C          -2.90850        -0.13660        -1.71340
C          -2.65210         1.08050        -1.11050
H          -3.84130        -0.28490        -2.23840
H          -3.38380         1.87340        -1.16960
C           2.52930        -6.75750        -1.59870
C           2.05740        -6.29050        -0.33220
C           3.75600        -8.56760        -0.54320
C           3.37070        -7.88370        -1.68020
H           4.40280        -9.42890        -0.62800
H           3.72160        -8.21740        -2.64610
C          -1.44100         1.30630        -0.43350
C          -0.46110         0.26150        -0.35330
C           0.76770         0.59370         0.30860
C           0.98010         1.84730         0.87500
C           0.00380         2.82770         0.80830
C          -1.19530         2.57120         0.15850
H           1.59040        -0.09080         0.38020
H           1.91920         2.06160         1.36550
H           0.18340         3.79680         1.25180
H          -1.94760         3.34430         0.09560
C           2.46140        -7.00970         0.85110
C           3.31750        -8.15490         0.72640
C           3.72860        -8.87720         1.87540
C           3.31090        -8.49120         3.14100
C           2.48300        -7.39110         3.29170
C           2.06110        -6.66210         2.18360
H           4.37540        -9.73520         1.76270
H           3.63200        -9.04590         4.01100
H           2.16440        -7.09390         4.28060
H           1.42450        -5.82740         2.39820
C          -2.83330        -7.16150        -3.96490
C          -2.84570        -5.98720        -4.71310
C          -2.38320        -4.80330        -4.14370
C          -1.89890        -4.78350        -2.82950
C          -1.90630        -5.97180        -2.08840
C          -2.36570        -7.15860        -2.65320
H          -3.19020        -8.08210        -4.40390
H          -3.20650        -5.99350        -5.73120
H          -2.37430        -3.89770        -4.73330
H          -1.54980        -5.97250        -1.06770
H          -2.35900        -8.07010        -2.07310
C           0.70640        -3.03430        -6.55780
C           1.14200        -2.29250        -5.46280
C           1.34410        -2.92500        -4.23900
C           1.10320        -4.29700        -4.09500
C           0.67560        -5.02890        -5.21010
C           0.47340        -4.40180        -6.43720
H           0.54970        -2.54450        -7.50810
H           1.32500        -1.23200        -5.55890
H           1.68860        -2.34690        -3.39290
H           0.47410        -6.08630        -5.11390
H           0.13300        -4.97390        -7.28790
P           1.29100        -3.11720         1.15590
O           0.12710        -2.47810         2.06110
O           2.57560        -3.14120         1.89740
H           0.51810        -2.08250         2.85730

