%chk=hexynoate_OPLS3e_1_opt.chk
%nprocshared=12
%mem=48GB
# m062x 6-31g(d) scrf=(iefpcm,solvent=benzene) opt=(maxcycles=50,maxstep=10)

 Structure506

0  1
C           1.38400        -0.85040        -0.09860
C           1.16780         0.31980        -0.82510
C          -0.09430         0.91060        -0.82210
C          -1.13250         0.32710        -0.09270
C          -0.91200        -0.84440         0.63480
C           0.35020        -1.43500         0.63150
H           2.36340        -1.30780        -0.10010
H           1.97420         0.76860        -1.38700
H          -0.26310         1.81940        -1.38280
C          -2.45080         0.94370        -0.09000
H          -1.71440        -1.29480         1.20240
H           0.52550        -2.34070         1.19400
C          -3.55260         1.47160        -0.08080
C          -4.95570         2.17480        -0.11470
O          -5.45910         2.69270         0.88060
C          -5.69330         2.16050        -1.45980
H          -4.98470         2.56380        -2.18430
H          -5.86570         1.13610        -1.78560
C          -7.00640         2.99960        -1.53650
H          -7.64430         2.65660        -2.34910
H          -7.59190         2.81510        -0.63480
C          -6.81860         4.51660        -1.61290
O          -5.74200         5.02400        -1.92710
O          -7.94380         5.18230        -1.30830
C          -7.94610         6.60290        -1.30200
H          -8.93530         6.97300        -1.03260
H          -7.68980         7.00140        -2.28510
H          -7.22920         6.99250        -0.57690

