%chk=inoue_OPLS3e_1_opt.chk
%nprocshared=12
%mem=48GB
# m062x 6-31g(d) scrf=(iefpcm,solvent=benzene) opt=(maxcycles=50,maxstep=10)

 Structure1280

0  1
N          -5.44560         5.17710         3.23300
C          -5.28880         2.99710         4.28620
N          -6.29210         2.47460         3.32140
C          -6.83180         4.79580         2.84150
H          -5.85180         3.31950         5.16460
C          -4.25910         1.92810         4.74860
H          -7.44870         4.94280         3.72990
C          -7.41720         5.65770         1.69120
O          -3.38250         4.56440         3.84170
C          -4.58350         4.31410         3.79630
O          -7.63720         2.80100         1.56710
C          -6.99380         3.27200         2.49730
H          -5.04360         6.03050         2.87640
H          -6.30380         1.49460         3.08310
H          -8.47600         5.43320         1.54420
H          -6.94670         5.38910         0.74260
C          -6.97380         9.89040         2.32640
C          -6.07810         9.22120         1.49470
C          -6.22350         7.85240         1.28440
C          -7.26350         7.15810         1.90870
C          -8.16000         7.83470         2.73940
C          -8.01440         9.20370         2.94900
H          -6.86160        10.95300         2.48820
H          -5.27600         9.76220         1.01320
H          -5.52900         7.33660         0.63630
H          -8.96830         7.30460         3.22230
H          -8.70590         9.73150         3.59010
H          -4.78740         1.17380         5.33270
H          -3.55050         2.37050         5.45220
C          -3.50790         1.24250         3.62130
C          -3.50050        -0.05600         3.12310
N          -2.67450        -0.21320         2.10180
C          -2.14120         0.96930         1.92590
N          -2.60720         1.89350         2.82210
H          -4.08670        -0.88410         3.49470
H          -1.41560         1.24660         1.17540
H          -2.36180         2.87640         2.88880

