%chk=superquat_OPLS3e_1_opt.chk
%nprocshared=12
%mem=48GB
# m062x 6-31g(d) scrf=(iefpcm,solvent=benzene) opt=(maxcycles=50,maxstep=10)

 Structure283

0  1
C           0.40430        -0.32990         0.11060
O           1.51780        -0.35710         0.97590
N           2.35350         0.39050        -0.92420
C           0.90390         0.63870        -0.97840
C           0.18520        -1.76680        -0.41570
C          -0.80920         0.11630         0.94700
H           0.49780         0.28780        -1.92990
C           0.52540         2.16000        -0.84790
C           2.68420        -0.05190         0.31020
O           3.77960        -0.22510         0.84120
C           3.14060         0.46360        -2.03080
O           2.65290         0.53290        -3.16210
C           4.67970         0.52800        -1.93170
H           5.06550        -0.21450        -1.23550
H           5.10380         0.24680        -2.89660
C           5.97860         4.50890        -0.91530
C           6.10060         3.48290         0.01960
C           5.68930         2.19460        -0.31190
C           5.15660         1.93470        -1.57780
C           5.03670         2.97030        -2.51080
C           5.44830         4.25840        -2.17930
H           6.29800         5.50840        -0.65720
H           6.51080         3.68390         0.99890
H           5.78020         1.40300         0.41930
H           4.61750         2.77610        -3.48870
H           5.35490         5.05910        -2.89880
C           1.26290         2.92960         0.27220
C           0.70030         2.90920        -2.18290
H          -0.54260         2.21400        -0.63250
H           2.33070         3.01940         0.06450
H           0.87110         3.94170         0.37900
H           1.16160         2.44390         1.24230
H           0.28980         3.91810        -2.12870
H           1.75050         3.00430        -2.46140
H           0.19100         2.39670        -3.00010
H          -0.68420        -1.81700        -1.07130
H           1.04190        -2.13500        -0.98100
H           0.02200        -2.46610         0.40510
H          -1.69560         0.23750         0.32480
H          -1.04340        -0.61840         1.71800
H          -0.63230         1.05700         1.46580

