%chk=cyclic-1_1_opt_sqm_reopt9_freq.chk
%nprocshared=12
%mem=48GB
# wb97xd def2svp scrf=(iefpcm,solvent=toluene) freq=noraman

 cyclic-1_1_opt_sqm_reopt9.out

0  1
C           1.86139         0.76266         0.01495
C          -2.84446         2.20132        -0.02490
C           2.10773        -1.41403         0.02477
C          -3.46405         1.01970        -0.03549
N           1.21901        -0.39182         0.04249
H          -3.41263         3.13353        -0.04853
H          -1.75416         2.27353         0.00873
H           1.81065        -2.45563         0.03909
H          -4.55180         0.93022        -0.06773
O           3.16692         0.56319        -0.02139
C           3.41613        -0.86138        -0.01806
O           4.54094        -1.28074        -0.04844
C          -2.70189        -0.24776        -0.00405
O          -1.48916        -0.33799         0.02659
O          -3.49552        -1.30570        -0.01417
C          -2.87940        -2.58843         0.01000
H          -3.69332        -3.31729        -0.05470
H          -2.31930        -2.72910         0.94521
H          -2.19591        -2.70586        -0.84249
C           1.25754         2.03947         0.02076
N           0.72784         3.07095         0.02658
H           0.18521        -0.46255         0.06840

