%chk=cyclic-1_1_opt_dft_reopt5_freq.chk
%nprocshared=12
%mem=48GB
# wb97xd def2svp scrf=(iefpcm,solvent=toluene) freq=noraman

 cyclic-1_1_opt_dft_reopt5.out

0  1
C           1.72135         0.57560        -0.40473
C          -1.52612         1.64463         1.56845
C           2.05479        -1.43249         0.40514
C          -2.57924         1.17612         0.89812
N           1.12496        -0.52551         0.02062
H          -1.55320         2.62036         2.05673
H          -0.60421         1.06408         1.65728
H           1.79851        -2.41278         0.78889
H          -3.51324         1.73616         0.82088
O           3.03458         0.44916        -0.32177
C           3.34040        -0.86019         0.20747
O           4.48135        -1.19800         0.37010
C          -2.54983        -0.14601         0.23370
O          -1.56287        -0.84915         0.09221
O          -3.73925        -0.50839        -0.20487
C          -3.83937        -1.76251        -0.87408
H          -3.19460        -1.77539        -1.76337
H          -4.88958        -1.86700        -1.16327
H          -3.54419        -2.58063        -0.20317
C           1.07512         1.73905        -0.87861
N           0.52067         2.68439        -1.25772
H           0.08798        -0.65111         0.04762

