%chk=cyclic-1_1_opt_hf_re5_freq.chk
%nprocshared=12
%mem=48GB
# wb97xd def2svp scrf=(iefpcm,solvent=toluene) freq=noraman

 cyclic-1_1_opt_hf_re5.out

0  1
C          -1.70512        -0.15704         0.14517
C           0.28776         2.97266        -0.30923
C          -0.48099        -1.74661         1.04710
C           1.06085         2.01212        -0.81713
N          -1.08306        -0.54800         1.24532
H          -0.15701         3.74359        -0.94109
H           0.07813         3.00544         0.76350
H           0.10157        -2.24444         1.81224
H           1.29459         1.95278        -1.88225
O          -1.54868        -1.06069        -0.80241
C          -0.73499        -2.14498        -0.29022
O          -0.44270        -3.07104        -0.99502
C           1.64742         0.96386         0.05730
O           1.43849         0.84848         1.24463
O           2.43317         0.14445        -0.63553
C           3.03761        -0.93276         0.06731
H           3.75921        -1.38154        -0.62305
H           2.27854        -1.67737         0.34626
H           3.54446        -0.57376         0.97337
C          -2.44672         1.03328        -0.02362
N          -3.05150         2.01473        -0.14371
H          -0.99469         0.01546         2.08640

