%chk=cyclic-1_1_opt_sqm_re7_freq.chk
%nprocshared=12
%mem=48GB
# wb97xd def2svp scrf=(iefpcm,solvent=toluene) freq=noraman

 cyclic-1_1_opt_sqm_re7.out

0  1
C           1.42679         0.73720         0.03241
C          -1.07050        -1.42175         1.95975
C           2.29408        -1.09507        -0.80005
C          -2.06921        -0.66119         1.50919
N           1.14974        -0.40920        -0.56418
H          -0.90394        -1.55737         3.03011
H          -0.39637        -1.94484         1.27632
H           2.31420        -2.06360        -1.28527
H          -2.76497        -0.15792         2.18342
O           2.73004         0.86128         0.21005
C           3.38149        -0.31721        -0.31753
O           4.57618        -0.42487        -0.26399
C          -2.30807        -0.47340         0.05862
O          -1.51894        -0.77442        -0.82295
O          -3.48883         0.06202        -0.17530
C          -3.88690         0.35011        -1.51460
H          -4.81731        -0.19638        -1.71212
H          -3.10880         0.04878        -2.22473
H          -4.07059         1.42954        -1.58307
C           0.47651         1.70215         0.43494
N          -0.33185         2.47024         0.75324
H           0.16986        -0.70265        -0.76699

