%chk=da-2_1_opt_sqm_reopt_freq.chk
%nprocshared=12
%mem=48GB
# wb97xd def2svp scrf=(iefpcm,solvent=toluene) freq=noraman

 da-2_1_opt_sqm_reopt.out

0  1
C          -2.17526         0.62674         0.27447
C           0.33165        -1.04286         1.26333
C           0.19931         2.57609         0.37162
C           1.37887        -0.21838         1.32913
C          -1.40891         1.01192        -0.76053
C          -0.32038         1.99403        -0.71959
H           1.02615         3.28447         0.28738
H          -0.18215         2.37927         1.37762
H          -2.02467         1.10747         1.24836
H          -0.36341        -1.34879         2.04266
H           1.77599         0.33618         2.17682
O           1.25666        -0.97145        -0.85321
C           0.24192        -1.55629        -0.13209
C           2.00580        -0.16607        -0.02173
O          -0.51226        -2.34158        -0.61482
O           2.97699         0.40751        -0.39784
C          -3.24619        -0.42294         0.18677
H          -4.03756        -0.12772        -0.52028
H          -2.82816        -1.37769        -0.17089
H          -3.71982        -0.60117         1.16131
H          -1.58214         0.53981        -1.73440
H           0.12386         2.23884        -1.68993

