%chk=da-2_1_opt_dft_re_freq.chk
%nprocshared=12
%mem=48GB
# wb97xd def2svp scrf=(iefpcm,solvent=toluene) freq=noraman

 da-2_1_opt_dft_re.out

0  1
C          -2.17508         0.62679         0.27447
C           0.33148        -1.04276         1.26334
C           0.19957         2.57604         0.37157
C           1.37876        -0.21836         1.32913
C          -1.40885         1.01202        -0.76059
C          -0.32017         1.99397        -0.71962
H           1.02651         3.28429         0.28727
H          -0.18189         2.37937         1.37761
H          -2.02429         1.10737         1.24840
H          -0.36366        -1.34857         2.04266
H           1.77587         0.33630         2.17676
O           1.25657        -0.97157        -0.85317
C           0.24172        -1.55625        -0.13207
C           2.00578        -0.16623        -0.02171
O          -0.51254        -2.34144        -0.61482
O           2.97708         0.40717        -0.39780
C          -3.24617        -0.42273         0.18680
H          -4.03757        -0.12734        -0.52015
H          -2.82831        -1.37751        -0.17099
H          -3.71971        -0.60099         1.16136
H          -1.58225         0.54007        -1.73450
H           0.12417         2.23867        -1.68994

