%nprocshared=12
%mem=48GB
# external="~/scripts/MiMe -H 'wb97xd def2svp' -EF 'wb97xd def2svp' -c 12 -m 48GB" opt=(calcall,ts,noeigen,maxcycles=50,maxstep=10,nomicro) 

 TS-68.out

0  1
C          -0.74249        -0.12132         0.22248
C          -2.09729         0.30804         0.69467
O          -2.30169         1.18952         1.52012
C           0.23569         0.82708         0.28242
C          -1.12249         3.02777        -1.33601
H          -0.92798         3.59591        -2.25016
H          -2.10314         2.55168        -1.41988
H          -1.13854         3.71741        -0.48760
N          -0.08065         2.00990        -1.13770
H          -0.07122         1.43807        -1.98871
H           0.81630         2.51011        -1.18421
C           1.69287         0.45967         0.25094
C           2.32299        -0.06152        -0.88807
C           3.68719        -0.36217        -0.87152
C           4.43783        -0.13667         0.28037
C           3.82677         0.39194         1.41535
C           2.46265         0.69229         1.39956
H           1.75802        -0.23854        -1.79909
H           4.16255        -0.77282        -1.75836
H           5.49878        -0.37232         0.29348
H           4.41054         0.57044         2.31459
H           2.00288         1.10430         2.29536
H           0.02255         1.70746         0.91213
Br         -0.52741        -1.88792        -0.36586
O          -3.07299        -0.40619         0.06938
C          -4.39791        -0.05049         0.46209
H          -5.09696        -0.68232        -0.09281
H          -4.54310        -0.23106         1.53182
H          -4.60411         0.99512         0.21281

