%chk=TS-249_opt_dft_freq.chk
%nprocshared=12
%mem=48GB
# wb97xd def2svp scrf=(iefpcm,solvent=toluene) freq=noraman

 TS-249_opt_dft.out

0  1
C          -0.92961         0.65909        -0.27085
C          -1.90014        -0.21159         0.29082
O          -3.03254        -0.45584        -0.11451
C           0.34926         0.78115         0.31322
C           2.89855        -0.27562         0.14072
H           2.87536        -0.45533         1.22343
H           3.56870        -1.00731        -0.33120
H           3.28791         0.73532        -0.03798
N           1.53630        -0.35996        -0.38452
H           1.11702        -1.28037        -0.23623
H           1.49794        -0.19109        -1.39169
H           0.92411         1.69591         0.11990
H           0.44391         0.45176         1.35811
H          -1.17850         1.21090        -1.18228
H          -1.53862        -0.71149         1.24218

