%chk=TS-249_opt_sqm_freq.chk
%nprocshared=12
%mem=48GB
# wb97xd def2svp scrf=(iefpcm,solvent=toluene) freq=noraman

 TS-249_opt_sqm.out

0  1
C          -0.92959         0.65902        -0.27089
C          -1.90015        -0.21155         0.29082
O          -3.03255        -0.45581        -0.11451
C           0.34927         0.78111         0.31323
C           2.89857        -0.27559         0.14069
H           2.87544        -0.45534         1.22340
H           3.56870        -1.00727        -0.33129
H           3.28790         0.73535        -0.03800
N           1.53629        -0.35996        -0.38447
H           1.11701        -1.28038        -0.23615
H           1.49787        -0.19110        -1.39164
H           0.92409         1.69589         0.11992
H           0.44385         0.45176         1.35814
H          -1.17843         1.21076        -1.18238
H          -1.53866        -0.71137         1.24224

