%chk=TS-92_opt_hf_re.chk
%nprocshared=12
%mem=48GB
# wb97xd def2svp geom=allchk scrf=(iefpcm,solvent=toluene) opt=(readfc,ts,noeigen,maxcycles=50,maxstep=10)
