%chk=allylic-1_1_opt_dft_reopt_freq.chk
%nprocshared=12
%mem=48GB
# wb97xd def2svp scrf=(iefpcm,solvent=toluene) freq=noraman

 allylic-1_1_opt_dft_reopt.out

0  1
C          -0.92336        -0.45836        -0.94046
C           2.39545        -0.19926         0.26489
C          -0.97656         1.89366        -0.52787
C           2.28728         0.68467        -0.71469
N          -1.24017         0.48636        -0.13415
H           3.14889         0.83606        -1.36692
H          -0.31289         2.25857         0.28666
H           3.27756        -0.80432         0.49151
H          -1.93943         2.41255        -0.33434
H          -0.53501        -0.09102        -1.89507
H           1.37112         1.26730        -0.88887
F           1.38843        -0.45844         1.11967
C          -1.01586        -1.91874        -0.66208
H          -0.66156        -2.48868        -1.52845
H          -0.39340        -2.17773         0.20804
H          -2.05068        -2.22542        -0.44413
C          -1.77094         0.20653         1.19829
H          -2.62699         0.87122         1.36692
H          -2.08023        -0.83842         1.32898
H          -0.98810         0.45037         1.92921

