%chk=allylic-1_1_opt_hf_re_freq.chk
%nprocshared=12
%mem=48GB
# wb97xd def2svp scrf=(iefpcm,solvent=toluene) freq=noraman

 allylic-1_1_opt_hf_re.out

0  1
C           0.92343         0.45825        -0.94048
C          -2.39553         0.19929         0.26479
C           0.97663        -1.89375        -0.52770
C          -2.28729        -0.68500        -0.71446
N           1.24019        -0.48640        -0.13406
H          -3.14889        -0.83678        -1.36660
H           0.31288        -2.25857         0.28681
H          -3.27770         0.80433         0.49121
H           1.93947        -2.41262        -0.33396
H           0.53513         0.09081        -1.89507
H          -1.37106        -1.26758        -0.88842
F          -1.38850         0.45893         1.11942
C           1.01594         1.91866        -0.66226
H           0.66190         2.48850        -1.52880
H           0.39324         2.17779         0.20765
H           2.05071         2.22533        -0.44406
C           1.77088        -0.20645         1.19838
H           2.62697        -0.87107         1.36710
H           2.08010         0.83853         1.32900
H           0.98803        -0.45027         1.92929

