%chk=allylic-1_1_opt_sqm_reopt_freq.chk
%nprocshared=12
%mem=48GB
# wb97xd def2svp scrf=(iefpcm,solvent=toluene) freq=noraman

 allylic-1_1_opt_sqm_reopt.out

0  1
C          -0.92363        -0.45801        -0.94048
C           2.39595        -0.19970         0.26503
C          -0.97564         1.89398        -0.52740
C           2.28811         0.68468        -0.71419
N          -1.24021         0.48672        -0.13411
H           3.15015         0.83705        -1.36562
H          -0.31242         2.25828         0.28778
H           3.27816        -0.80446         0.49211
H          -1.93839         2.41332        -0.33448
H          -0.53498        -0.09076        -1.89501
H           1.37169         1.26687        -0.88844
F           1.38836        -0.45970         1.11889
C          -1.01686        -1.91839        -0.66223
H          -2.05224        -2.22483        -0.44652
H          -0.66084        -2.48835        -1.52785
H          -0.39631        -2.17755         0.20921
C          -1.77148         0.20687         1.19812
H          -2.62673         0.87253         1.36698
H          -2.08210        -0.83776         1.32820
H          -0.98845         0.44936         1.92931

