%chk=checkpoints/2f_gs_2_opt_hess
%nprocshared=16
%mem=48GB
# m062x 6-31g(d) scrf=(iefpcm,solvent=benzene) opt=(calcfc,maxcycles=50,maxstep=10) freq=noraman

 *****

0  1
N          -1.12180         1.43320        -0.77810
H          -1.49720         0.70510         1.14840
C          -3.03210        -1.33380         0.46330
C          -1.63190         0.63770         0.07070
C          -2.45220        -0.44450        -0.36350
H          -2.91220        -1.28640         1.53750
H          -3.64420        -2.13380         0.07130
H          -2.58640        -0.51180        -1.43490
C          -0.29760         2.51260        -0.26950
H          -0.71490         3.47180        -0.57930
H           0.70550         2.44040        -0.69230
H          -0.18780         2.54450         0.81950

