%nprocshared=12
%mem=48GB
# external="~/scripts/MiMe -H 'hf def2svp' -EF 'wb97xd def2svp' -c 12 -m 48GB" opt=(calcall,ts,noeigen,maxcycles=50,maxstep=10,nomicro) 

 TS-325_hfm.out

0  1
C           0.10822         0.09638        -0.09553
C          -0.32810         1.50034         0.01482
O          -1.33885         1.82036         0.65171
C          -0.84893        -0.88830         0.06838
C          -0.57469        -0.85179         2.89322
H          -0.84192        -0.38484         3.85457
H          -0.37038        -1.91880         3.06028
H           0.34685        -0.37654         2.52227
N          -1.59880        -0.68664         1.88366
H          -2.44540        -1.22973         2.04197
H          -1.82647         0.30684         1.71179
H          -0.51302        -1.92594         0.12479
Br         -2.56385        -0.84282        -0.84561
C           1.53632        -0.28872        -0.17156
C           2.53809         0.42651         0.51492
C           3.87392         0.03956         0.45615
C           4.25372        -1.08523        -0.27684
C           3.27879        -1.80720        -0.96286
C           1.94502        -1.40614        -0.92305
H           2.25856         1.29730         1.11303
H           4.62535         0.61517         1.00221
H           5.30111        -1.39143        -0.31764
H           3.56061        -2.68174        -1.55426
H           1.20113        -1.95549        -1.50567
N           0.44622         2.43997        -0.59421
C           0.17375         3.85187        -0.52371
H           1.20989         2.11380        -1.17121
H          -0.64692         3.99918         0.18897
H           1.05663         4.41320        -0.17856
H          -0.13900         4.25784        -1.49964

