%chk=TS-249_sqm.chk
# wb97xd def2svp geom=allchk scrf=(iefpcm,solvent=toluene) opt=(readfc,ts,noeigen,maxcycles=50,maxstep=10)
