%chk=TS-92_opt_sqm_reopt_freq.chk
%nprocshared=12
%mem=48GB
# wb97xd def2svp scrf=(iefpcm,solvent=toluene) freq=noraman

 TS-92_opt_sqm_reopt.out

0  1
C          -0.90902        -0.70550         0.18611
C          -2.28932        -0.46054         0.15146
O          -2.85694         0.63995         0.02980
C           0.04988         0.41218         0.27110
C          -0.80220         2.63749        -1.05740
H          -0.19157         3.33616        -0.47601
H          -0.91454         3.01848        -2.08106
H          -1.78416         2.48865        -0.59597
N          -0.14106         1.31997        -1.10945
H          -0.70333         0.67556        -1.67445
H           0.77326         1.39759        -1.56203
C           1.49459        -0.07367         0.16156
C           1.83922        -0.97833        -0.85549
C           3.15036        -1.41913        -1.01271
C           4.14917        -0.96809        -0.14936
C           3.82139        -0.07314         0.86574
C           2.50777         0.37411         1.01628
H           1.05876        -1.35267        -1.52250
H           3.39175        -2.12608        -1.80957
H           5.17769        -1.31605        -0.26662
H           4.59282         0.28352         1.55180
H           2.28169         1.07276         1.82197
C          -0.18523         1.36867         1.43884
H          -1.24427         1.64921         1.47137
H           0.04545         0.82437         2.36406
H           0.43602         2.27729         1.41020
H          -0.54333        -1.72918         0.23600
O          -3.05070        -1.59973         0.22142
C          -4.43965        -1.42671         0.09872
H          -4.88699        -2.42703         0.17134
H          -4.84711        -0.78518         0.89615
H          -4.71530        -0.97306        -0.86740

