%chk=TS-92_opt_hf_re2_freq.chk
%nprocshared=12
%mem=48GB
# wb97xd def2svp scrf=(iefpcm,solvent=toluene) freq=noraman

 TS-92_opt_hf_re2.out

0  1
C          -0.90917        -0.70548         0.18631
C          -2.28942        -0.46048         0.15143
O          -2.85691         0.64005         0.02932
C           0.04985         0.41213         0.27099
C          -0.80176         2.63746        -1.05723
H          -0.19075         3.33586        -0.47587
H          -0.91418         3.01847        -2.08086
H          -1.78368         2.48880        -0.59569
N          -0.14097         1.31976        -1.10950
H          -0.70334         0.67562        -1.67471
H           0.77340         1.39733        -1.56205
C           1.49453        -0.07385         0.16151
C           1.83916        -0.97868        -0.85532
C           3.15040        -1.41930        -1.01259
C           4.14916        -0.96805        -0.14934
C           3.82132        -0.07298         0.86567
C           2.50771         0.37418         1.01616
H           1.05870        -1.35340        -1.52209
H           3.39181        -2.12626        -1.80943
H           5.17773        -1.31591        -0.26654
H           4.59277         0.28379         1.55167
H           2.28152         1.07298         1.82174
C          -0.18507         1.36866         1.43876
H          -1.24404         1.64938         1.47131
H           0.04540         0.82427         2.36396
H           0.43643         2.27714         1.41017
H          -0.54351        -1.72915         0.23662
O          -3.05093        -1.59957         0.22173
C          -4.43983        -1.42642         0.09870
H          -4.88739        -2.42653         0.17253
H          -4.84725        -0.78373         0.89521
H          -4.71534        -0.97402        -0.86809

