%nprocshared=12
%mem=48GB
# external="~/scripts/MiMe -H 'hf def2svp' -EF 'wb97xd def2svp' -c 12 -m 48GB" opt=(calcall,ts,noeigen,maxcycles=50,maxstep=10,nomicro) 

 *****

0  1
C           0.79520        -0.38870        -0.87610
C          -1.51190        -0.55700        -0.27260
C           0.29530         1.91110        -0.48920
C          -1.93840         0.81050        -0.17000
N           1.15540         0.81320        -0.16290
H          -2.44030         1.26460        -1.01590
H          -0.06810         2.05070        -1.50430
H          -1.76580        -1.19100        -1.11210
H           0.18730         2.74980         0.19440
H           0.43820        -0.28810        -1.90220
H          -2.06020         1.23390         0.82040
F          -1.44810        -1.28250         0.86300
C           1.39840        -1.72070        -0.53860
H           1.00270        -2.48700        -1.21290
H           2.48520        -1.69200        -0.66070
H           1.15940        -2.02170         0.48520
C           1.47680         0.67540         1.24760
H           1.76650         1.63920         1.68390
H           0.63390         0.28470         1.82940
H           2.33500         0.00970         1.39410

