%chk=checkpoints/2a_gs_2_freq
%nprocshared=16
%mem=48GB
# m062x 6-31g(d) scrf=(iefpcm,solvent=benzene) freq=noraman

 *****

0  1
C          -2.04980        -1.44580         0.00000
N          -0.68940        -1.41520         0.00000
C          -0.88630         0.89110         0.00000
H          -2.53080        -2.41180         0.00000
N          -2.84510        -0.34170         0.00000
N          -2.24610         0.86410         0.00000
N          -0.08820        -0.21050         0.00000
C          -0.21930         2.24900         0.00000
H           0.86790         2.16600         0.00000
H          -0.52200         2.81200        -0.88240
H          -0.52200         2.81200         0.88240

