%chk=checkpoints/2c_gs_2_freq
%nprocshared=16
%mem=48GB
# m062x 6-31g(d) scrf=(iefpcm,solvent=benzene) freq=noraman

 *****

0  1
C          -0.05110        -0.09270        -0.74220
C           1.38940        -0.10270        -0.62820
C           1.81260         1.10940        -0.25000
C           0.62390         2.02140        -0.08770
C          -0.53760         1.12040        -0.43750
H          -0.65190        -0.94280        -1.03210
H           2.02420        -0.95670        -0.81900
H           2.83220         1.42480        -0.07790
H           0.53200         2.39060         0.93460
H           0.67000         2.87340        -0.76710
C          -1.96520         1.61930        -0.41170
H          -2.09260         2.44410        -1.11290
H          -2.65700         0.82500        -0.69320
H          -2.23060         1.96130         0.58870

