%chk=checkpoints/1a_gs_2_freq
%nprocshared=16
%mem=48GB
# m062x 6-31g(d) scrf=(iefpcm,solvent=benzene) freq=noraman

 *****

0  1
H          -0.34450         0.19920         0.11690
C          -0.23500         2.31020         0.11690
H          -1.96360         1.08990         0.11690
C          -0.88370         1.13570         0.11690
H           0.84720         2.32150         0.11690
C          -0.92630         3.65590         0.11690
H          -0.19150         4.46150         0.11690
H          -1.55170         3.76740        -0.76960
H          -1.55170         3.76740         1.00340

