%chk=checkpoints/1d_gs_1_freq
%nprocshared=16
%mem=48GB
# m062x 6-31g(d) scrf=(iefpcm,solvent=benzene) freq=noraman

 *****

0  1
O           0.68930         2.65300        -0.20920
C           0.07160         4.70600         0.39570
H           0.18830         5.75770         0.61000
C          -1.01430         3.92450         0.45670
H          -2.03040         4.16090         0.73470
C           1.16740         3.88110        -0.03420
C          -0.61050         2.60160         0.06560
O           2.33150         4.22710        -0.21190
O          -1.31750         1.60100        -0.00690

