%chk=checkpoints/2e_gs_2_opt
%nprocshared=16
%mem=48GB
# m062x 6-31g(d) scrf=(iefpcm,solvent=benzene) opt=(maxcycles=50,maxstep=10)

 *****

0  1
C           1.74920         1.08730        -0.23070
H          -0.66700        -1.04210        -0.87010
C          -0.49670         1.09320        -0.37100
H           1.99930        -1.05480        -0.70490
C           1.35380        -0.20010        -0.55010
C          -0.04240        -0.19150        -0.63620
H           2.72730         1.51900        -0.07030
N           0.61770         1.85640        -0.12610
H           0.59710         2.84090         0.09780
C          -1.88530         1.68140        -0.32400
H          -2.64670         0.93240        -0.54320
H          -2.11810         2.09290         0.65840
H          -2.01030         2.48390        -1.05120

