%chk=BPA_TS_2_opt_dft.chk
%nprocshared=12
%mem=48GB
# wb97xd def2svp scrf=(iefpcm,solvent=toluene) opt=(calcfc,ts,noeigen,maxcycles=50,maxstep=10) 

 Structure2

0  1
C          -2.29270         0.82070        -2.49870
C          -1.35550         0.04200        -3.29900
C          -0.75590        -2.10640        -4.56310
C          -2.53390        -3.74840        -2.16540
O          -0.09150         0.47440        -3.45090
H           0.23200        -1.66220        -4.68020
H          -1.14850        -2.30060        -5.56140
H          -0.60830        -3.06550        -4.06940
O          -1.71560        -4.67000        -2.10190
O          -3.83050        -3.85590        -2.53330
C          -4.37160        -5.12600        -2.86590
H          -5.42270        -5.02310        -3.13600
H          -3.84450        -5.56830        -3.71280
H          -4.30420        -5.81400        -2.02150
Si          0.45260         1.94140        -4.06540
C          -0.99510         3.08750        -4.43320
H          -0.66240         3.98980        -4.94330
H          -1.72830         2.59530        -5.07080
H          -1.50440         3.39460        -3.52200
C           1.53460         2.71040        -2.73980
H           2.44330         2.13090        -2.58710
H           1.00710         2.74640        -1.78920
H           1.82490         3.72580        -3.00420
C           1.45670         1.58830        -5.66530
C           0.53840         1.00510        -6.76120
H           1.09040         0.78010        -7.67490
H           0.06360         0.07950        -6.43400
H          -0.25860         1.69990        -7.02930
C           2.08930         2.88940        -6.20610
H           1.33090         3.63480        -6.44910
H           2.66490         2.70990        -7.11550
H           2.76820         3.33800        -5.47950
C           2.59110         0.57900        -5.38700
H           3.17280         0.36750        -6.28560
H           3.28570         0.95180        -4.63330
H           2.19680        -0.37190        -5.02870
C          -2.15400        -2.26300        -1.83940
C          -1.71110        -1.18090        -3.79810
C          -3.57900         0.46150        -2.24880
O          -2.99610        -1.45560        -1.36860
H          -1.07230        -2.12190        -1.79220
C          -4.46820         1.20050        -1.26470
H          -1.90300         1.68420        -1.97990
H          -2.76150        -1.45010        -3.90140
C           1.74400        -3.74040        -1.44590
C           2.52900        -3.03250        -2.34960
C           2.62830        -1.65090        -2.25930
C           1.94760        -0.95820        -1.26270
H           1.65520        -4.81440        -1.53160
H           3.05870        -3.55830        -3.13130
H           3.23570        -1.10920        -2.96950
H           2.02500         0.11790        -1.22570
C           1.03950        -3.06170        -0.42020
C           1.14440        -1.64220        -0.30400
C           0.42500        -0.97100         0.74260
C          -0.44850        -1.71490         1.56010
C          -0.54470        -3.11000         1.44280
C           0.21240        -3.76790         0.47510
O          -1.21690        -1.05990         2.48860
H           0.14040        -4.84200         0.37690
C           0.79480         3.32370         1.01140
C          -0.44720         2.74260         0.76920
C          -0.57530         1.34680         0.78250
C           0.55510         0.51790         0.92660
H           0.88700         4.40030         1.01900
O          -1.80600         0.77190         0.58850
C           1.82280         1.11270         1.24340
C           1.93430         2.53650         1.27570
C           3.18490         3.13840         1.56490
C           4.30140         2.35250         1.83170
C           4.20360         0.96730         1.82050
C           2.99010         0.34790         1.53530
H           3.26560         4.21580         1.58500
H           5.24910         2.82050         2.05720
H           5.07480         0.36610         2.03890
H           2.93410        -0.73080         1.54160
C          -3.16940        -5.41480         3.93060
C          -3.16070        -5.62260         2.55390
C          -2.30780        -4.87130         1.74920
C          -1.45820        -3.90900         2.31130
C          -1.48100        -3.71440         3.69780
C          -2.33310        -4.46210         4.50630
H          -3.83490        -5.99130         4.55690
H          -3.81700        -6.35750         2.11130
H          -2.31670        -5.03180         0.68080
H          -0.83980        -2.97120         4.15050
H          -2.34840        -4.29620         5.57370
P          -2.35350        -0.08070         1.86030
O          -3.04780         0.74420         2.88160
O          -3.34100        -1.12250         1.13310
H          -3.27880        -1.04910         0.15310
C          -3.77540         5.27920        -0.11960
C          -3.79820         4.49070         1.02820
C          -2.71260         3.67010         1.32210
C          -1.60390         3.62790         0.47170
C          -1.58880         4.43590        -0.67070
C          -2.67300         5.25700        -0.97050
H          -4.61970         5.91320        -0.34950
H          -4.65230         4.50890         1.68990
H          -2.73380         3.06750         2.21790
H          -0.73820         4.41650        -1.33590
H          -2.66050         5.87060        -1.85960
H          -4.10590        -0.30160        -2.81390
H          -5.33690         1.61500        -1.77540
H          -4.81690         0.52740        -0.48160
H          -3.93760         2.02280        -0.78290

