%chk=imda-1_1_opt_hf_reopt_freq.chk
%nprocshared=12
%mem=48GB
# wb97xd def2svp scrf=(iefpcm,solvent=toluene) freq=noraman

 imda-1_1_opt_hf_reopt.out

0  1
C          -2.46796         0.31598        -0.21946
C           0.99027         1.27196         1.11632
C          -0.91990        -1.47746        -0.04036
C           1.36801        -0.00314         1.09853
C          -2.67296        -0.34846         0.93962
C          -1.72064        -1.45594         1.04737
C           0.22547        -2.40386        -0.32218
H           0.46116        -2.97851         0.58788
H          -0.07694        -3.14826        -1.07904
C           1.48639        -1.71543        -0.85722
H           2.25894        -2.45331        -1.12029
H           1.24992        -1.19049        -1.80035
C           2.16435        -0.66539         0.00844
O           3.31399        -0.35170        -0.18970
H           1.05808        -0.62867         1.94076
H           0.41602         1.71057         1.93352
C          -1.34779        -0.36350        -0.95930
H          -1.68848        -0.75328        -1.93660
H          -0.53111         0.34499        -1.18287
Cl          1.28738         2.38340        -0.18787
C          -3.17281         1.52525        -0.73987
H          -2.46663         2.36083        -0.87789
H          -3.96316         1.85542        -0.05124
H          -3.63353         1.33145        -1.72235
H          -1.65252        -2.13831         1.89741
H          -3.42369        -0.09671         1.69123

