%chk=imda-1_1_opt_dft_reopt_freq.chk
%nprocshared=12
%mem=48GB
# wb97xd def2svp scrf=(iefpcm,solvent=toluene) freq=noraman

 imda-1_1_opt_dft_reopt.out

0  1
C          -2.46508         0.31818        -0.22130
C           0.99074         1.27078         1.11772
C          -0.92177        -1.47914        -0.03966
C           1.36772        -0.00456         1.09818
C          -2.67344        -0.34554         0.93759
C          -1.72385        -1.45519         1.04706
C           0.22401        -2.40626        -0.31779
H           0.45976        -2.97682         0.59484
H          -0.07779        -3.15426        -1.07134
C           1.48483        -1.71962        -0.85518
H           2.25745        -2.45861        -1.11501
H           1.24891        -1.19847        -1.80050
C           2.16253        -0.66622         0.00675
O           3.31062        -0.34965        -0.19580
H           1.05812        -0.63063         1.94014
H           0.41729         1.70859         1.93590
C          -1.34605        -0.36468        -0.95969
H          -1.68798        -0.75469        -1.93650
H          -0.52742         0.34117        -1.18430
Cl          1.28735         2.38384        -0.18510
C          -3.16578         1.52939        -0.74281
H          -2.45701         2.36300        -0.87940
H          -3.95644         1.86163        -0.05553
H          -3.62527         1.33702        -1.72614
H          -1.65807        -2.13697         1.89775
H          -3.42467        -0.09183         1.68804

