%chk=imda-1_1_opt_sqm_reopt_freq.chk
%nprocshared=12
%mem=48GB
# wb97xd def2svp scrf=(iefpcm,solvent=toluene) freq=noraman

 imda-1_1_opt_sqm_reopt.out

0  1
C          -2.46717         0.31492        -0.21937
C           0.98861         1.27213         1.11657
C          -0.91878        -1.47829        -0.04081
C           1.36787        -0.00252         1.09886
C          -2.67232        -0.35014         0.93932
C          -1.71974        -1.45742         1.04678
C           0.22739        -2.40378        -0.32239
H           0.46345        -2.97815         0.58773
H          -0.07423        -3.14854        -1.07923
C           1.48772        -1.71422        -0.85731
H           2.26090        -2.45138        -1.12062
H           1.25075        -1.18923        -1.80026
C           2.16482        -0.66388         0.00865
O           3.31425        -0.34929        -0.18926
H           1.05870        -0.62840         1.94112
H           0.41392         1.71018         1.93372
C          -1.34682        -0.36408        -0.95938
H          -1.68767        -0.75373        -1.93668
H          -0.53031         0.34457        -1.18303
Cl          1.28423         2.38368        -0.18790
C          -3.17233         1.52413        -0.73952
H          -2.46588         2.35908        -0.87993
H          -3.96101         1.85548        -0.04955
H          -3.63530         1.32964        -1.72081
H          -1.65152        -2.14005         1.89661
H          -3.42328        -0.09892         1.69088

