%chk=imda-1_1_opt_sqm_re_freq.chk
%nprocshared=12
%mem=48GB
# wb97xd def2svp scrf=(iefpcm,solvent=toluene) freq=noraman

 imda-1_1_opt_sqm_re.out

0  1
C          -2.46695         0.31487        -0.21937
C           0.98807         1.27223         1.11638
C          -0.91868        -1.47846        -0.04100
C           1.36742        -0.00240         1.09882
C          -2.67217        -0.35033         0.93923
C          -1.71967        -1.45769         1.04656
C           0.22754        -2.40389        -0.32258
H           0.46346        -2.97842         0.58751
H          -0.07396        -3.14853        -1.07958
C           1.48797        -1.71427        -0.85717
H           2.26129        -2.45139        -1.12011
H           1.25131        -1.18945        -1.80029
C           2.16472        -0.66376         0.00888
O           3.31418        -0.34912        -0.18872
H           1.05807        -0.62825         1.94102
H           0.41311         1.71025         1.93335
C          -1.34668        -0.36416        -0.95948
H          -1.68769        -0.75378        -1.93674
H          -0.53013         0.34442        -1.18319
Cl          1.28405         2.38380        -0.18799
C          -3.17195         1.52426        -0.73929
H          -2.46548         2.35929        -0.87904
H          -3.96092         1.85531        -0.04951
H          -3.63452         1.33014        -1.72085
H          -1.65151        -2.14043         1.89630
H          -3.42312        -0.09916         1.69081

