%chk=TS-898_opt_dft_freq.chk
%nprocshared=12
%mem=48GB
# wb97xd def2svp scrf=(iefpcm,solvent=toluene) freq=noraman

 TS-898_opt_dft.out

0  1
C          -0.58903        -0.47534        -0.15237
C          -1.83161         0.04224         0.36718
O          -1.95838         0.88158         1.26642
C           0.65098        -0.02294         0.35309
C           0.68377         2.14246        -1.28324
H           1.01281         2.55020        -2.24798
H          -0.36655         1.82180        -1.35232
H           0.77029         2.91491        -0.51048
N           1.47467         0.97590        -0.90010
H           1.58535         0.32743        -1.68164
H           2.41502         1.21777        -0.58095
Cl          1.99879        -1.30286         0.42962
C           0.76342         0.83871         1.58403
H           0.12792         1.72559         1.49122
H           0.38293         0.27620         2.44631
H           1.81139         1.11113         1.77246
C          -0.61068        -1.43944        -1.32096
H           0.39359        -1.83419        -1.53000
H          -1.24674        -2.31937        -1.13207
H          -0.98429        -0.98051        -2.25551
C          -3.10757        -0.51545        -0.26397
H          -3.18752        -1.60285        -0.10923
H          -3.96807        -0.02180         0.20449
H          -3.13678        -0.34294        -1.35107

