%chk=TS-898_opt_hf_freq.chk
%nprocshared=12
%mem=48GB
# wb97xd def2svp scrf=(iefpcm,solvent=toluene) freq=noraman

 TS-898_opt_hf.out

0  1
C          -0.58904        -0.47531        -0.15244
C          -1.83166         0.04211         0.36725
O          -1.95845         0.88105         1.26683
C           0.65094        -0.02298         0.35311
C           0.68390         2.14264        -1.28305
H           1.01315         2.55053        -2.24765
H          -0.36640         1.82199        -1.35239
H           0.77025         2.91497        -0.51015
N           1.47473         0.97602        -0.89994
H           1.58546         0.32760        -1.68151
H           2.41507         1.21782        -0.58067
Cl          1.99877        -1.30295         0.42949
C           0.76340         0.83846         1.58417
H           0.12794         1.72538         1.49154
H           0.38290         0.27582         2.44637
H           1.81138         1.11085         1.77263
C          -0.61066        -1.43908        -1.32130
H           0.39356        -1.83404        -1.53023
H          -1.24700        -2.31888        -1.13281
H          -0.98394        -0.97978        -2.25580
C          -3.10763        -0.51518        -0.26424
H          -3.18785        -1.60258        -0.10964
H          -3.96808        -0.02141         0.20419
H          -3.13666        -0.34253        -1.35132

