%chk=imda-2_1_opt_sqm_reopt_freq.chk
%nprocshared=12
%mem=48GB
# wb97xd def2svp scrf=(iefpcm,solvent=toluene) freq=noraman

 imda-2_1_opt_sqm_reopt.out

0  1
C          -2.05644        -2.09527        -0.33592
C           0.38819        -0.58372         1.61264
C          -2.05704         0.12419        -0.67541
C          -0.28170         0.57480         1.56777
C          -3.06353        -1.56780         0.44475
C          -3.06650        -0.16253         0.22893
C          -1.54952         1.43837        -1.18973
H          -0.72570         1.26036        -1.89676
H          -2.33859         1.95350        -1.75898
C          -1.07234         2.38920        -0.08035
H          -0.70281         3.33322        -0.50419
H          -1.92778         2.63341         0.57440
C           0.01979         1.85003         0.82182
O           1.03551         2.46027         1.05239
H          -1.15283         0.65465         2.22676
H           0.06478        -1.35218         2.31995
C           1.57395        -1.02936         0.85869
O           2.29457        -1.90895         1.18629
N          -1.47326        -1.06277        -1.01582
H          -0.66460        -1.14645        -1.61922
H          -1.72630        -3.12137        -0.47716
Br          1.92282        -0.14997        -0.88464
H          -3.73037        -2.13271         1.09269
H          -3.73170         0.56782         0.68704

