%chk=imda-2_1_opt_dft_freq.chk
%nprocshared=12
%mem=48GB
# wb97xd def2svp scrf=(iefpcm,solvent=toluene) freq=noraman

 imda-2_1_opt_dft.out

0  1
C          -2.05577        -2.09477        -0.33673
C           0.38698        -0.58424         1.61273
C          -2.05607         0.12472        -0.67603
C          -0.28186         0.57491         1.56799
C          -3.06265        -1.56721         0.44414
C          -3.06539        -0.16192         0.22850
C          -1.54826         1.43885        -1.19018
H          -0.72423         1.26073        -1.89695
H          -2.33708         1.95413        -1.75963
C          -1.07122         2.38952        -0.08062
H          -0.70121         3.33342        -0.50421
H          -1.92686         2.63404         0.57377
C           0.02027         1.85005         0.82216
O           1.03578         2.46027         1.05368
H          -1.15252         0.65565         2.22754
H           0.06321        -1.35228         2.32024
C           1.57162        -1.03131         0.85797
O           2.29013        -1.91328         1.18390
N          -1.47256        -1.06230        -1.01668
H          -0.66411        -1.14606        -1.62026
H          -1.72572        -3.12088        -0.47801
Br          1.92295        -0.14933        -0.88357
H          -3.72951        -2.13207         1.09208
H          -3.73031         0.56850         0.68693

