%chk=da-1_1_opt_hf_reopt_freq.chk
%nprocshared=12
%mem=48GB
# wb97xd def2svp scrf=(iefpcm,solvent=toluene) freq=noraman

 da-1_1_opt_hf_reopt.out

0  1
O          -2.39438         1.09758         0.31340
C           0.77058         1.55386         0.01834
C          -1.23452        -1.50637         0.61406
C           1.61927         0.62516         0.46926
C          -2.63704         0.20261        -0.46276
C          -2.05093        -1.15731        -0.38505
H          -3.34338         0.36884        -1.31131
H          -0.99002        -0.78453         1.39823
H          -2.31786        -1.86167        -1.17829
H           0.00678         2.00482         0.65454
H           0.79976         1.87854        -1.02765
H           1.60935         0.27973         1.50766
C           2.61225         0.00204        -0.42577
O           3.38879        -0.85882        -0.09008
H          -0.79481        -2.50403         0.67913
H           2.59727         0.38830        -1.47741

