%chk=da-1_1_opt_hf_re_freq.chk
%nprocshared=12
%mem=48GB
# wb97xd def2svp scrf=(iefpcm,solvent=toluene) freq=noraman

 da-1_1_opt_hf_re.out

0  1
O          -2.39448        -1.09705        -0.31363
C           0.76987        -1.55427        -0.01762
C          -1.23305         1.50622        -0.61416
C           1.61879        -0.62606        -0.46909
C          -2.63661        -0.20197         0.46256
C          -2.04962         1.15758         0.38496
H          -3.34311        -0.36779         1.31106
H          -0.98909         0.78434        -1.39846
H          -2.31601         1.86201         1.17833
H           0.00642        -2.00594        -0.65374
H           0.79845        -1.87777         1.02875
H           1.60944        -0.28175        -1.50787
C           2.61123        -0.00192         0.42582
O           3.38787         0.85867         0.08966
H          -0.79261         2.50357        -0.67908
H           2.59573        -0.38709         1.47786

