%chk=da-1_1_opt_sqm_freq.chk
%nprocshared=12
%mem=48GB
# wb97xd def2svp scrf=(iefpcm,solvent=toluene) freq=noraman

 da-1_1_opt_sqm.out

0  1
O          -2.15634         0.98025         0.52368
C           0.97550         1.98877        -0.16503
C          -0.91712        -1.60385         0.54397
C           1.44884         0.88133         0.41269
C          -2.23562         0.23360        -0.42317
C          -1.61036        -1.11014        -0.48672
H          -2.80525         0.53561        -1.33540
H          -0.80655        -1.01520         1.45920
H          -1.73911        -1.67782        -1.41299
H           0.50328         2.78547         0.41303
H           1.03666         2.12782        -1.24992
H           1.39245         0.71908         1.49312
C           2.05436        -0.19652        -0.39148
O           2.46357        -1.23840         0.06083
H          -0.44128        -2.58566         0.50532
H           2.10850         0.01674        -1.49003

