%chk=johnston_OPLS3e_1_opt_hess.chk
%nprocshared=12
%mem=48GB
# m062x 6-31g(d) scrf=(iefpcm,solvent=benzene) opt=(calcfc,maxcycles=50,maxstep=10) freq=noraman

 Structure2

1  1
C           0.56990         1.43320         0.30810
C          -0.22840         0.09410         0.26930
C          -1.59630         0.18880         0.98290
C          -1.44310         0.70720         2.42520
C          -0.70060         2.05680         2.45730
C           0.66950         1.98970         1.74900
H           0.07260         2.19990        -0.28510
N           1.94340         1.25420        -0.20180
H           0.33530        -0.66130         0.82250
N          -0.39980        -0.46440        -1.08020
H          -2.08330        -0.78780         0.99490
H          -2.27270         0.85030         0.44050
H          -2.42590         0.81160         2.88980
H          -0.90410        -0.02610         3.02880
H          -1.32000         2.82020         1.98150
H          -0.57070         2.38360         3.49120
H           1.33790         1.36960         2.35030
H           1.10780         2.98970         1.73470
H           2.62130         0.87660         0.44240
H          -0.38770        -1.47240        -1.12870
N           1.47970         1.84200        -2.48400
C           2.34620         1.43270        -1.54670
C           3.66990         1.19820        -1.90790
C           4.08990         1.38880        -3.22790
H           5.11740         1.21010        -3.51960
N          -1.54120         1.41450        -2.00780
C          -1.17070         0.11350        -2.09740
C          -1.49690        -0.68560        -3.18810
C          -2.26670        -0.15720        -4.22420
H          -2.54380        -0.76150        -5.07740
C          -2.69930         1.18820        -4.14390
C          -2.31340         1.94420        -2.99510
C          -2.72320         3.29230        -2.88400
C          -3.49850         3.87270        -3.88710
C          -3.87430         3.13610        -5.00760
C          -3.48530         1.80470        -5.14800
H          -2.44030         3.86060        -2.00970
H          -3.82090         4.90150        -3.79370
H          -4.48360         3.60190        -5.77100
H          -3.78790         1.23590        -6.01650
C           3.15440         1.82680        -4.20100
C           1.80300         2.05820        -3.80090
C           0.83530         2.49450        -4.72800
C           1.20990         2.69830        -6.05640
C           2.52470         2.47560        -6.46560
C           3.49860         2.04510        -5.56060
H          -0.18070         2.67440        -4.41170
H           0.47820         3.03490        -6.78180
H           2.78830         2.64290        -7.50340
H           4.51460         1.87840        -5.89540
H          -1.17060        -1.71400        -3.23210
H           4.38220         0.86980        -1.16380
H           0.50960         1.91610        -2.20480

