%chk=terada_OPLS3e_1_opt_hess.chk
%nprocshared=12
%mem=48GB
# m062x 6-31g(d) scrf=(iefpcm,solvent=benzene) opt=(calcfc,maxcycles=50,maxstep=10) freq=noraman

 Structure2

0  1
C          -1.66950        -2.70140         3.84410
C          -2.30090        -3.06280         5.03170
C           0.51220        -3.05840         4.89110
C          -0.27020        -2.74440         3.75920
H          -3.37980        -3.04400         5.08770
O           0.35080        -2.42140         2.57650
C           4.82670        -2.79780         4.73640
C           4.14620        -3.63220         3.85160
C           2.74590        -3.68100         3.89320
C           2.01210        -2.93350         4.83310
H           5.90600        -2.76000         4.71270
O           2.07330        -4.47160         2.99810
C          -1.56510        -3.49370         6.15390
C          -0.13840        -3.50570         6.09090
C           0.57260        -3.97260         7.23550
C          -0.09960        -4.38080         8.38410
C          -1.48680        -4.34650         8.43720
C          -2.22170        -3.91100         7.33940
H           1.65170        -4.01580         7.21330
H           0.46170        -4.72950         9.23930
H          -1.99640        -4.66770         9.33450
H          -3.30140        -3.89640         7.38360
C           2.71010        -2.02300         5.69780
C           4.13740        -1.97640         5.65220
C           4.84220        -1.10230         6.51840
C           4.15350        -0.27420         7.39870
C           2.76560        -0.28950         7.43560
C           2.04700        -1.14140         6.60170
H           5.92190        -1.07510         6.48520
H           4.69910         0.39260         8.05110
H           2.23960         0.36650         8.11450
H           0.96790        -1.12810         6.64150
P           1.19900        -3.64070         1.91010
O           2.33920        -2.85510         1.09300
H           2.53810        -3.34210         0.27650
O           0.41380        -4.51280         1.00120
C          -4.11280        -1.43930         0.56520
C          -3.32250        -2.57890         0.43670
C          -2.52680        -2.98950         1.50290
C          -2.51140        -2.26460         2.69830
C          -3.31510        -1.12480         2.81530
C          -4.11350        -0.71000         1.75180
H          -4.72830        -1.11890        -0.26300
H          -3.32230        -3.14490        -0.48370
H          -1.92580        -3.88070         1.40130
H          -3.31010        -0.55270         3.73170
H          -4.72590         0.17490         1.84550
C           6.37750        -5.93910         1.01020
C           6.63250        -4.57720         1.14880
C           5.90580        -3.83090         2.07340
C           4.92230        -4.43760         2.86460
C           4.67850        -5.80770         2.71100
C           5.40170        -6.55790         1.78730
H           6.93840        -6.52030         0.29210
H           7.38710        -4.10070         0.53970
H           6.09810        -2.77160         2.16670
H           3.91840        -6.29100         3.30900
H           5.20270        -7.61400         1.67430

