%chk=urea_cinchrona_OPLS3e_5000_steps_1_opt_hess.chk
%nprocshared=12
%mem=48GB
# m062x 6-31g(d) scrf=(iefpcm,solvent=benzene) opt=(calcfc,maxcycles=50,maxstep=10) freq=noraman

 Molecule Name

1  1
C           0.60920         1.53190        -0.53410
N          -0.60250         0.95980        -0.46250
C          -1.92020         1.56030        -0.72890
C          -2.31730         2.76400         0.20430
H          -1.87950         1.91760        -1.75870
C          -2.97380         0.44000        -0.70930
H          -1.97190         2.53690         1.21450
C          -3.82870         3.16630         0.28370
N          -1.51090         4.04140        -0.18120
C          -3.23070        -0.35800         0.46160
C          -3.72650         0.19110        -1.86260
C          -4.04850         4.70130         0.15680
H          -4.26860         2.77540         1.20290
H          -4.39470         2.66490        -0.50260
C          -2.05030         4.72060        -1.47360
C          -1.62430         5.06940         0.98150
C          -2.53920        -0.22370         1.69700
C          -4.25060        -1.35850         0.37160
C          -4.69390        -0.80740        -1.84910
H          -3.56760         0.75620        -2.77050
C          -3.53670         5.11440        -1.24990
H          -5.10150         4.96800         0.29100
C          -3.13660         5.41450         1.20790
H          -1.91810         4.02970        -2.30780
H          -1.41540         5.58900        -1.66980
H          -1.13960         4.62680         1.85640
H          -1.03320         5.94300         0.69320
C          -2.83070        -1.03010         2.79000
H          -1.75040         0.49700         1.81270
C          -4.53960        -2.16860         1.49400
N          -4.96500        -1.57020        -0.76660
H          -5.28150        -1.02110        -2.73190
H          -4.15690         4.65780        -2.02450
H          -3.65700         6.19070        -1.39350
H          -3.24590         6.49340         1.06630
C          -3.58210         5.14840         2.66250
C          -3.83410        -1.99780         2.68290
O          -2.07720        -0.79960         3.92040
H          -5.30980        -2.92440         1.41530
H          -3.01110         5.75440         3.36850
H          -4.63370         5.39950         2.81120
H          -3.44930         4.10670         2.95690
H          -4.07560        -2.63590         3.51860
C          -2.22670        -1.66190         5.04520
H          -1.51930        -1.36800         5.82100
H          -3.22830        -1.59550         5.47280
H          -2.01480        -2.70120         4.78770
N           1.67720         0.72030        -0.45350
O           0.76490         2.73490        -0.70590
H          -0.59040        -0.04800        -0.51530
H           2.54960         1.17280        -0.68020
C           1.73150        -0.66600        -0.22290
C           1.00300        -1.29130         0.79900
C           2.59370        -1.42460        -1.01710
C           1.10570        -2.67290         1.00240
H           0.36650        -0.70970         1.45220
C           2.70780        -2.80700        -0.82820
H           3.17280        -0.94690        -1.79700
C           1.95720        -3.42380         0.18100
H           2.04090        -4.49370         0.32970
C           3.64550        -3.62340        -1.71830
C           0.30040        -3.34030         2.11750
F           3.96120        -4.79340        -1.16170
F           3.03580        -3.85500        -2.87950
F           4.77230        -2.94970        -1.95130
F          -0.97090        -3.43550         1.73250
F           0.74940        -4.56490         2.39440
F           0.36100        -2.61170         3.23210
H          -0.53440         3.74640        -0.32340

