%chk=TS-68_opt_dft_freq.chk
%nprocshared=12
%mem=48GB
# wb97xd def2svp scrf=(iefpcm,solvent=toluene) freq=noraman

 TS-68_opt_dft.out

0  1
C          -0.81398         0.04609         0.12774
C          -2.03849         0.62251         0.58802
O          -2.21080         1.82328         0.79449
C           0.29176         0.91301        -0.10294
C          -0.96572         1.85239        -2.27006
H          -0.89601         2.20417        -3.30747
H          -1.60823         0.96481        -2.21816
H          -1.39856         2.62508        -1.62450
N           0.35676         1.48727        -1.75437
H           0.77614         0.74879        -2.32332
H           1.00712         2.27571        -1.77881
C           1.71682         0.51006         0.16313
C           2.38822        -0.47231        -0.57664
C           3.70804        -0.80780        -0.27946
C           4.37666        -0.17197         0.76575
C           3.71810         0.80605         1.50989
C           2.40182         1.14705         1.20548
H           1.87420        -1.00122        -1.38239
H           4.21402        -1.57804        -0.86555
H           5.40944        -0.43880         0.99991
H           4.23226         1.31022         2.33098
H           1.89113         1.91457         1.79266
H           0.05673         1.87209         0.37556
Br         -0.72973        -1.80547        -0.31831
O          -3.03685        -0.26543         0.79593
C          -4.25077         0.26341         1.28097
H          -4.94292        -0.58310         1.36763
H          -4.11890         0.73633         2.26614
H          -4.66681         1.01619         0.59405

