%chk=TS-68_opt_hf_freq.chk
%nprocshared=12
%mem=48GB
# wb97xd def2svp scrf=(iefpcm,solvent=toluene) freq=noraman

 TS-68_opt_hf.out

0  1
C          -0.81399         0.04612         0.12770
C          -2.03843         0.62262         0.58792
O          -2.21079         1.82349         0.79393
C           0.29174         0.91309        -0.10340
C          -0.96590         1.85144        -2.27056
H          -0.89600         2.20327        -3.30794
H          -1.60816         0.96367        -2.21879
H          -1.39908         2.62400        -1.62507
N           0.35661         1.48671        -1.75457
H           0.77624         0.74822        -2.32333
H           1.00676         2.27532        -1.77920
C           1.71681         0.51021         0.16293
C           2.38830        -0.47228        -0.57661
C           3.70809        -0.80772        -0.27922
C           4.37657        -0.17174         0.76598
C           3.71791         0.80640         1.50990
C           2.40167         1.14735         1.20527
H           1.87437        -1.00134        -1.38232
H           4.21413        -1.57805        -0.86513
H           5.40932        -0.43852         1.00031
H           4.23196         1.31069         2.33098
H           1.89091         1.91495         1.79228
H           0.05667         1.87222         0.37498
Br         -0.72965        -1.80550        -0.31807
O          -3.03674        -0.26529         0.79631
C          -4.25062         0.26371         1.28127
H          -4.94277        -0.58277         1.36825
H          -4.11869         0.73695         2.26629
H          -4.66671         1.01629         0.59415

