%chk=cinchonidine_OPLS3e_1000_1_freq.chk
%nprocshared=12
%mem=48GB
# m062x 6-31g(d) scrf=(iefpcm,solvent=benzene) freq=noraman

 Molecule Name

1  1
O           1.51470         3.38050        -3.25020
C           1.13100         2.26690        -2.46580
C          -0.39540         2.29350        -2.12610
H           1.70500         2.37380        -1.54440
C           1.52390         0.93970        -3.12610
H          -0.59750         1.38190        -1.55690
C          -1.38980         2.34810        -3.32930
N          -0.75750         3.44360        -1.12540
C           1.80110        -0.22230        -2.32720
C           1.59570         0.82270        -4.52130
C          -2.52150         3.39000        -3.11320
H          -1.79420         1.35490        -3.53060
H          -0.84550         2.59500        -4.24280
C          -0.81810         4.83670        -1.82380
C          -2.18230         3.15510        -0.55950
C           1.74290        -0.25440        -0.90230
C           2.15430        -1.43010        -3.01370
C           1.94770        -0.39530        -5.09160
H           1.38100         1.66430        -5.16610
C          -1.84260         4.77980        -2.99020
H          -3.24070         3.37420        -3.93790
C          -3.20920         3.09230        -1.74280
H           0.18300         5.10840        -2.16130
H          -1.10700         5.56990        -1.06640
H          -2.12800         2.22540         0.01390
H          -2.41700         3.95700         0.14620
C           2.03280        -1.42630        -0.20560
H           1.48040         0.62360        -0.33600
C           2.44140        -2.60230        -2.27500
N           2.22540        -1.50390        -4.37030
H           2.01520        -0.50630        -6.16550
H          -1.33300         5.02760        -3.92450
H          -2.59500         5.56130        -2.86340
H          -3.95260         3.87540        -1.56880
C          -4.00940         1.77140        -1.75190
C           2.37950        -2.58850        -0.88450
H           2.71110        -3.50650        -2.80360
H          -4.58150         1.64690        -0.83080
H          -4.72760         1.74580        -2.57350
H          -3.36860         0.89470        -1.85190
H           2.60450        -3.48790        -0.32660
H           2.44200         3.26200        -3.48600
H          -0.07680         3.47060        -0.37470
H           1.99410        -1.43880         0.87550

