%chk=takemoto_OPLS3e_1_freq.chk
%nprocshared=12
%mem=48GB
# m062x 6-31g(d) scrf=(iefpcm,solvent=benzene) freq=noraman

 Structure1

0  1
C          -0.75960        -6.64100        -3.66020
C           0.60500        -6.50090        -3.94320
C           1.09350        -5.25240        -4.34790
C           0.23870        -4.14870        -4.46190
C          -1.12140        -4.30790        -4.17450
C          -1.63200        -5.55800        -3.78880
H          -1.14450        -7.60440        -3.35260
C           1.55270        -7.69380        -3.81130
H           2.14720        -5.14150        -4.57080
C           0.76890        -2.77780        -4.88520
H          -1.76340        -3.43830        -4.23160
N          -2.98770        -5.78410        -3.47840
F           2.09990        -2.71640        -4.81600
F           0.26770        -1.82090        -4.10320
F           0.40400        -2.53980        -6.14440
F           1.64570        -8.30040        -4.99340
F           2.77080        -7.30030        -3.43660
F           1.10380        -8.57460        -2.91550
H          -3.14880        -6.49410        -2.77900
C          -4.11040        -5.10400        -3.83890
S          -5.47610        -5.37500        -2.93050
N          -4.01770        -4.30310        -4.94200
H          -3.11660        -4.22480        -5.38860
C          -7.22370        -3.02240        -6.75780
C          -6.16460        -4.03480        -6.28130
C          -5.04060        -3.37280        -5.44230
C          -4.41000        -2.15080        -6.17620
C          -5.50450        -1.14930        -6.62420
C          -6.59570        -1.81990        -7.48110
H          -7.79490        -2.67030        -5.89640
H          -7.94400        -3.51800        -7.41100
H          -5.72390        -4.52580        -7.15050
H          -6.65750        -4.82020        -5.70650
H          -5.51620        -2.95020        -4.55590
N          -3.25630        -1.56720        -5.46490
H          -4.00410        -2.57390        -7.09880
H          -5.96190        -0.68640        -5.74960
H          -5.05980        -0.33940        -7.20110
H          -6.16550        -2.14920        -8.42880
H          -7.36920        -1.09380        -7.73650
C          -3.59170        -0.90440        -4.20120
C          -2.43520        -0.69300        -6.30520
H          -4.21180        -0.01960        -4.35400
H          -4.12220        -1.57650        -3.52520
H          -2.68640        -0.58790        -3.67980
H          -2.95620         0.22530        -6.58030
H          -1.51830        -0.40860        -5.78560
H          -2.13420        -1.20040        -7.22340

