%chk=cinchonidine_OPLS3e_1000_2_opt_freq.chk
%nprocshared=12
%mem=48GB
# m062x 6-31g(d) scrf=(iefpcm,solvent=benzene) freq=noraman

 Molecule Name

1  1
O           1.67000         3.26790        -3.91430
C           1.05010         2.41250        -2.97920
C          -0.47710         2.73020        -3.01450
H           1.44520         2.71040        -2.01150
C           1.35050         0.94240        -3.30260
H          -0.82240         2.52710        -4.03210
C          -0.89820         4.18440        -2.62800
N          -1.27840         1.72760        -2.12190
C           1.87180         0.02860        -2.32060
C           1.09190         0.46140        -4.59270
C          -2.07620         4.20860        -1.61440
H          -1.13420         4.75540        -3.52760
H          -0.04240         4.71810        -2.20930
C          -1.09820         2.04410        -0.60760
C          -2.79180         1.87180        -2.46240
C           2.22680         0.37790        -0.98310
C           2.05450        -1.33600        -2.72430
C           1.31530        -0.87800        -4.88640
H           0.72880         1.12300        -5.36850
C          -1.58360         3.49400        -0.32810
H          -2.39790         5.23290        -1.40110
C          -3.24330         3.34910        -2.19730
H          -0.04590         1.90950        -0.35750
H          -1.66930         1.30040        -0.04520
H          -2.92440         1.55890        -3.50200
H          -3.33090         1.15550        -1.83590
C           2.71840        -0.58280        -0.10120
H           2.15720         1.39000        -0.62440
C           2.55060        -2.28700        -1.80140
N           1.77270        -1.77100        -3.98200
H           1.13080        -1.26730        -5.87910
H          -0.77620         4.06860         0.13180
H          -2.37780         3.47920         0.42200
H          -4.03730         3.31490        -1.44580
C          -3.89430         3.99240        -3.44130
C           2.87440        -1.90320        -0.50390
H           2.68630        -3.31190        -2.11970
H          -4.78400         3.44250        -3.75350
H          -4.21280         5.01700        -3.24050
H          -3.22010         4.02270        -4.29800
H           3.26470        -2.63350         0.19290
H           2.60060         3.02430        -3.97520
H          -0.95200         0.78610        -2.32610
H           2.99740        -0.30250         0.90610

